units real
atom_style full

pair_style lj/cut/coul/cut 22.0
bond_style harmonic
angle_style cosine/squared
dihedral_style fourier
improper_style harmonic

dielectric 15.0
pair_modify shift yes
special_bonds lj/coul 0.0 1.0 1.0

read_data ../lmps/data/nve_protein.data

group protein id 1:163

neighbor 10.0 bin

neigh_modify every 1 delay 0 check yes
